/*********************************************
 * OPL 22.1.0.0 Data
 * Author: vincenthaunberger
 * Creation Date: Jul 19, 2022 at 2:24:40 PM
 *********************************************/

 nbStudents = 5;
 nbCourses = 2;
 
 Courses = [
 	<7>,
 	<3>,
 ];
 
 Students = [
 	<2, [2,1]>,
 	<2, [2,1]>,
 	<2, [2,1]>,
 	<1, [1,2]>,
 	<1, [1,2]>,
 ];